33 1000
5 107
11 143
11 151
7 151
10 110
4 169
8 167
8 176
4 189
3 142
9 142
5 100
5 113
6 104
4 104
8 107
8 180
5 180
3 143
2 151
2 171
10 169
5 113
10 171
5 132
10 110
10 167
11 189
9 151
8 100
11 132
5 176
9 17
